(set-info :origin "benchmarks generated by liquid types http://goto.ucsd.edu/~rjhala/liquid/")
(set-logic HORN)
(declare-fun k_16
             (Int
              Int
              Int
              Int
              Int
              Int
              Int
              Int
              Int
              Int
              (Array Int Int)
              (Array Int Int)
              (Array Int Int))
             Bool)
(assert (forall ((VV Int)
         (char_to_index__csolve_heapify___main__SSA__blk_0_1 Int)
         (EREAD Int)
         (index_to_char__csolve_heapify___main__SSA__blk_0_1 Int)
         (i_main__SSA__blk_9_1 Int)
         (__cil_tmp6_main Int)
         (__cil_tmp7_main Int)
         (__cil_tmp8_main Int)
         (char_to_index__csolve_heapify___main Int)
         (EWRITE Int)
         (i_main__SSA__blk_1_1 Int)
         (i_main__SSA__phi_4 Int)
         (index_to_char__csolve_heapify___main Int)
         (i_main Int)
         (__cil_tmp9_main Int)
         (BLOCK_BEGIN (Array Int Int))
         (BLOCK_END (Array Int Int))
         (UNCHECKED (Array Int Int)))
  (let ((a!1 (and (= index_to_char__csolve_heapify___main__SSA__blk_0_1
                     index_to_char__csolve_heapify___main__SSA__blk_0_1)
                  (= index_to_char__csolve_heapify___main
                     index_to_char__csolve_heapify___main)
                  (= i_main__SSA__blk_9_1 i_main__SSA__blk_9_1)
                  (= i_main__SSA__blk_1_1 i_main__SSA__blk_1_1)
                  (= i_main i_main)
                  (= char_to_index__csolve_heapify___main__SSA__blk_0_1
                     char_to_index__csolve_heapify___main__SSA__blk_0_1)
                  (= char_to_index__csolve_heapify___main
                     char_to_index__csolve_heapify___main)
                  (= VV VV)
                  (= EWRITE EWRITE)
                  (= EREAD EREAD)
                  (= VV i_main__SSA__blk_9_1)
                  (not (= __cil_tmp6_main 0))
                  (> index_to_char__csolve_heapify___main__SSA__blk_0_1 0)
                  (= index_to_char__csolve_heapify___main__SSA__blk_0_1
                     (select BLOCK_BEGIN
                             index_to_char__csolve_heapify___main__SSA__blk_0_1))
                  (= (select BLOCK_END
                             index_to_char__csolve_heapify___main__SSA__blk_0_1)
                     (+ index_to_char__csolve_heapify___main__SSA__blk_0_1 1028))
                  (= i_main__SSA__blk_9_1 (+ i_main__SSA__phi_4 1))
                  (= i_main__SSA__blk_1_1 0)
                  (> char_to_index__csolve_heapify___main__SSA__blk_0_1 0)
                  (= char_to_index__csolve_heapify___main__SSA__blk_0_1
                     (select BLOCK_BEGIN
                             char_to_index__csolve_heapify___main__SSA__blk_0_1))
                  (= (select BLOCK_END
                             char_to_index__csolve_heapify___main__SSA__blk_0_1)
                     (+ char_to_index__csolve_heapify___main__SSA__blk_0_1 1024))
                  (<= index_to_char__csolve_heapify___main__SSA__blk_0_1
                      __cil_tmp9_main)
                  (= __cil_tmp9_main
                     (+ index_to_char__csolve_heapify___main__SSA__blk_0_1
                        (* 4 __cil_tmp8_main)))
                  (= (select UNCHECKED __cil_tmp9_main)
                     (select UNCHECKED
                             index_to_char__csolve_heapify___main__SSA__blk_0_1))
                  (= (select BLOCK_BEGIN __cil_tmp9_main)
                     (select BLOCK_BEGIN
                             index_to_char__csolve_heapify___main__SSA__blk_0_1))
                  (= (select BLOCK_END __cil_tmp9_main)
                     (select BLOCK_END
                             index_to_char__csolve_heapify___main__SSA__blk_0_1))
                  (= __cil_tmp8_main (+ i_main__SSA__phi_4 1))
                  (<= char_to_index__csolve_heapify___main__SSA__blk_0_1
                      __cil_tmp7_main)
                  (= __cil_tmp7_main
                     (+ char_to_index__csolve_heapify___main__SSA__blk_0_1
                        (* 4 i_main__SSA__phi_4)))
                  (= (select UNCHECKED __cil_tmp7_main)
                     (select UNCHECKED
                             char_to_index__csolve_heapify___main__SSA__blk_0_1))
                  (= (select BLOCK_BEGIN __cil_tmp7_main)
                     (select BLOCK_BEGIN
                             char_to_index__csolve_heapify___main__SSA__blk_0_1))
                  (= (select BLOCK_END __cil_tmp7_main)
                     (select BLOCK_END
                             char_to_index__csolve_heapify___main__SSA__blk_0_1))
                  (= __cil_tmp6_main (ite (< i_main__SSA__phi_4 256) 1 0))
                  (k_16 EREAD
                        EWRITE
                        i_main__SSA__phi_4
                        char_to_index__csolve_heapify___main
                        char_to_index__csolve_heapify___main__SSA__blk_0_1
                        i_main
                        i_main__SSA__blk_1_1
                        i_main__SSA__phi_4
                        index_to_char__csolve_heapify___main
                        index_to_char__csolve_heapify___main__SSA__blk_0_1
                        BLOCK_BEGIN
                        BLOCK_END
                        UNCHECKED)
                  true)))
    (=> a!1
        (k_16 EREAD
              EWRITE
              VV
              char_to_index__csolve_heapify___main
              char_to_index__csolve_heapify___main__SSA__blk_0_1
              i_main
              i_main__SSA__blk_1_1
              i_main__SSA__blk_9_1
              index_to_char__csolve_heapify___main
              index_to_char__csolve_heapify___main__SSA__blk_0_1
              BLOCK_BEGIN
              BLOCK_END
              UNCHECKED)))))
(assert (forall ((VV Int)
         (char_to_index__csolve_heapify___main__SSA__blk_0_1 Int)
         (EREAD Int)
         (index_to_char__csolve_heapify___main__SSA__blk_0_1 Int)
         (char_to_index__csolve_heapify___main Int)
         (EWRITE Int)
         (i_main__SSA__blk_1_1 Int)
         (i_main__SSA__blk_1_1_smt_19_0 Int)
         (index_to_char__csolve_heapify___main Int)
         (i_main Int)
         (BLOCK_BEGIN (Array Int Int))
         (BLOCK_END (Array Int Int))
         (UNCHECKED (Array Int Int)))
  (=> (and (= index_to_char__csolve_heapify___main__SSA__blk_0_1
              index_to_char__csolve_heapify___main__SSA__blk_0_1)
           (= index_to_char__csolve_heapify___main
              index_to_char__csolve_heapify___main)
           (= i_main__SSA__blk_1_1 i_main__SSA__blk_1_1_smt_19_0)
           (= i_main__SSA__blk_1_1 i_main__SSA__blk_1_1)
           (= i_main i_main)
           (= char_to_index__csolve_heapify___main__SSA__blk_0_1
              char_to_index__csolve_heapify___main__SSA__blk_0_1)
           (= char_to_index__csolve_heapify___main
              char_to_index__csolve_heapify___main)
           (= VV VV)
           (= EWRITE EWRITE)
           (= EREAD EREAD)
           (= VV i_main__SSA__blk_1_1)
           (> index_to_char__csolve_heapify___main__SSA__blk_0_1 0)
           (= index_to_char__csolve_heapify___main__SSA__blk_0_1
              (select BLOCK_BEGIN
                      index_to_char__csolve_heapify___main__SSA__blk_0_1))
           (= (select BLOCK_END
                      index_to_char__csolve_heapify___main__SSA__blk_0_1)
              (+ index_to_char__csolve_heapify___main__SSA__blk_0_1 1028))
           (= i_main__SSA__blk_1_1 0)
           (> char_to_index__csolve_heapify___main__SSA__blk_0_1 0)
           (= char_to_index__csolve_heapify___main__SSA__blk_0_1
              (select BLOCK_BEGIN
                      char_to_index__csolve_heapify___main__SSA__blk_0_1))
           (= (select BLOCK_END
                      char_to_index__csolve_heapify___main__SSA__blk_0_1)
              (+ char_to_index__csolve_heapify___main__SSA__blk_0_1 1024))
           true)
      (k_16 EREAD
            EWRITE
            VV
            char_to_index__csolve_heapify___main
            char_to_index__csolve_heapify___main__SSA__blk_0_1
            i_main
            i_main__SSA__blk_1_1
            i_main__SSA__blk_1_1_smt_19_0
            index_to_char__csolve_heapify___main
            index_to_char__csolve_heapify___main__SSA__blk_0_1
            BLOCK_BEGIN
            BLOCK_END
            UNCHECKED))))
(assert (forall ((char_to_index__csolve_heapify___main__SSA__blk_0_1 Int)
         (EREAD Int)
         (index_to_char__csolve_heapify___main__SSA__blk_0_1 Int)
         (__cil_tmp6_main Int)
         (char_to_index__csolve_heapify___main Int)
         (i_main Int)
         (i_main__SSA__blk_1_1 Int)
         (i_main__SSA__phi_4 Int)
         (index_to_char__csolve_heapify___main Int)
         (EWRITE Int)
         (BLOCK_BEGIN (Array Int Int))
         (BLOCK_END (Array Int Int))
         (UNCHECKED (Array Int Int)))
  (let ((a!1 (and (not (<= 0 i_main__SSA__phi_4))
                  (k_16 EREAD
                        EWRITE
                        i_main__SSA__phi_4
                        char_to_index__csolve_heapify___main
                        char_to_index__csolve_heapify___main__SSA__blk_0_1
                        i_main
                        i_main__SSA__blk_1_1
                        i_main__SSA__phi_4
                        index_to_char__csolve_heapify___main
                        index_to_char__csolve_heapify___main__SSA__blk_0_1
                        BLOCK_BEGIN
                        BLOCK_END
                        UNCHECKED)
                  (= __cil_tmp6_main (ite (< i_main__SSA__phi_4 256) 1 0))
                  (= (select BLOCK_END
                             char_to_index__csolve_heapify___main__SSA__blk_0_1)
                     (+ char_to_index__csolve_heapify___main__SSA__blk_0_1 1024))
                  (= char_to_index__csolve_heapify___main__SSA__blk_0_1
                     (select BLOCK_BEGIN
                             char_to_index__csolve_heapify___main__SSA__blk_0_1))
                  (> char_to_index__csolve_heapify___main__SSA__blk_0_1 0)
                  (= i_main__SSA__blk_1_1 0)
                  (= (select BLOCK_END
                             index_to_char__csolve_heapify___main__SSA__blk_0_1)
                     (+ index_to_char__csolve_heapify___main__SSA__blk_0_1 1028))
                  (= index_to_char__csolve_heapify___main__SSA__blk_0_1
                     (select BLOCK_BEGIN
                             index_to_char__csolve_heapify___main__SSA__blk_0_1))
                  (> index_to_char__csolve_heapify___main__SSA__blk_0_1 0)
                  (not (= __cil_tmp6_main 0))
                  true)))
    (=> a!1 false))))
(assert (forall ((VV Int)
         (char_to_index__csolve_heapify___main__SSA__blk_0_1 Int)
         (EREAD Int)
         (index_to_char__csolve_heapify___main__SSA__blk_0_1 Int)
         (__cil_tmp6_main Int)
         (__cil_tmp7_main Int)
         (char_to_index__csolve_heapify___main Int)
         (i_main Int)
         (i_main__SSA__blk_1_1 Int)
         (i_main__SSA__phi_4 Int)
         (index_to_char__csolve_heapify___main Int)
         (EWRITE Int)
         (BLOCK_BEGIN (Array Int Int))
         (BLOCK_END (Array Int Int))
         (UNCHECKED (Array Int Int)))
  (let ((a!1 (or (= (select UNCHECKED VV) 1)
                 (and (<= (select BLOCK_BEGIN VV) VV)
                      (< VV (select BLOCK_END VV))
                      true)
                 false)))
  (let ((a!2 (and (not a!1)
                  (k_16 EREAD
                        EWRITE
                        i_main__SSA__phi_4
                        char_to_index__csolve_heapify___main
                        char_to_index__csolve_heapify___main__SSA__blk_0_1
                        i_main
                        i_main__SSA__blk_1_1
                        i_main__SSA__phi_4
                        index_to_char__csolve_heapify___main
                        index_to_char__csolve_heapify___main__SSA__blk_0_1
                        BLOCK_BEGIN
                        BLOCK_END
                        UNCHECKED)
                  (= __cil_tmp6_main (ite (< i_main__SSA__phi_4 256) 1 0))
                  (= (select BLOCK_END __cil_tmp7_main)
                     (select BLOCK_END
                             char_to_index__csolve_heapify___main__SSA__blk_0_1))
                  (= (select BLOCK_BEGIN __cil_tmp7_main)
                     (select BLOCK_BEGIN
                             char_to_index__csolve_heapify___main__SSA__blk_0_1))
                  (= (select UNCHECKED __cil_tmp7_main)
                     (select UNCHECKED
                             char_to_index__csolve_heapify___main__SSA__blk_0_1))
                  (= __cil_tmp7_main
                     (+ char_to_index__csolve_heapify___main__SSA__blk_0_1
                        (* 4 i_main__SSA__phi_4)))
                  (<= char_to_index__csolve_heapify___main__SSA__blk_0_1
                      __cil_tmp7_main)
                  (= (select BLOCK_END
                             char_to_index__csolve_heapify___main__SSA__blk_0_1)
                     (+ char_to_index__csolve_heapify___main__SSA__blk_0_1 1024))
                  (= char_to_index__csolve_heapify___main__SSA__blk_0_1
                     (select BLOCK_BEGIN
                             char_to_index__csolve_heapify___main__SSA__blk_0_1))
                  (> char_to_index__csolve_heapify___main__SSA__blk_0_1 0)
                  (= i_main__SSA__blk_1_1 0)
                  (= (select BLOCK_END
                             index_to_char__csolve_heapify___main__SSA__blk_0_1)
                     (+ index_to_char__csolve_heapify___main__SSA__blk_0_1 1028))
                  (= index_to_char__csolve_heapify___main__SSA__blk_0_1
                     (select BLOCK_BEGIN
                             index_to_char__csolve_heapify___main__SSA__blk_0_1))
                  (> index_to_char__csolve_heapify___main__SSA__blk_0_1 0)
                  (not (= __cil_tmp6_main 0))
                  (< VV (+ __cil_tmp7_main 4))
                  (<= __cil_tmp7_main VV)
                  (= (select UNCHECKED VV) (select UNCHECKED __cil_tmp7_main))
                  (= (select BLOCK_END VV) (select BLOCK_END __cil_tmp7_main))
                  (= (select BLOCK_BEGIN VV)
                     (select BLOCK_BEGIN __cil_tmp7_main))
                  true)))
    (=> a!2 false)))))
(assert (forall ((char_to_index__csolve_heapify___main__SSA__blk_0_1 Int)
         (EREAD Int)
         (index_to_char__csolve_heapify___main__SSA__blk_0_1 Int)
         (__cil_tmp6_main Int)
         (__cil_tmp7_main Int)
         (__cil_tmp8_main Int)
         (char_to_index__csolve_heapify___main Int)
         (i_main Int)
         (i_main__SSA__blk_1_1 Int)
         (i_main__SSA__phi_4 Int)
         (index_to_char__csolve_heapify___main Int)
         (EWRITE Int)
         (BLOCK_BEGIN (Array Int Int))
         (BLOCK_END (Array Int Int))
         (UNCHECKED (Array Int Int)))
  (let ((a!1 (and (not (<= 0 __cil_tmp8_main))
                  (k_16 EREAD
                        EWRITE
                        i_main__SSA__phi_4
                        char_to_index__csolve_heapify___main
                        char_to_index__csolve_heapify___main__SSA__blk_0_1
                        i_main
                        i_main__SSA__blk_1_1
                        i_main__SSA__phi_4
                        index_to_char__csolve_heapify___main
                        index_to_char__csolve_heapify___main__SSA__blk_0_1
                        BLOCK_BEGIN
                        BLOCK_END
                        UNCHECKED)
                  (= __cil_tmp6_main (ite (< i_main__SSA__phi_4 256) 1 0))
                  (= (select BLOCK_END __cil_tmp7_main)
                     (select BLOCK_END
                             char_to_index__csolve_heapify___main__SSA__blk_0_1))
                  (= (select BLOCK_BEGIN __cil_tmp7_main)
                     (select BLOCK_BEGIN
                             char_to_index__csolve_heapify___main__SSA__blk_0_1))
                  (= (select UNCHECKED __cil_tmp7_main)
                     (select UNCHECKED
                             char_to_index__csolve_heapify___main__SSA__blk_0_1))
                  (= __cil_tmp7_main
                     (+ char_to_index__csolve_heapify___main__SSA__blk_0_1
                        (* 4 i_main__SSA__phi_4)))
                  (<= char_to_index__csolve_heapify___main__SSA__blk_0_1
                      __cil_tmp7_main)
                  (= __cil_tmp8_main (+ i_main__SSA__phi_4 1))
                  (= (select BLOCK_END
                             char_to_index__csolve_heapify___main__SSA__blk_0_1)
                     (+ char_to_index__csolve_heapify___main__SSA__blk_0_1 1024))
                  (= char_to_index__csolve_heapify___main__SSA__blk_0_1
                     (select BLOCK_BEGIN
                             char_to_index__csolve_heapify___main__SSA__blk_0_1))
                  (> char_to_index__csolve_heapify___main__SSA__blk_0_1 0)
                  (= i_main__SSA__blk_1_1 0)
                  (= (select BLOCK_END
                             index_to_char__csolve_heapify___main__SSA__blk_0_1)
                     (+ index_to_char__csolve_heapify___main__SSA__blk_0_1 1028))
                  (= index_to_char__csolve_heapify___main__SSA__blk_0_1
                     (select BLOCK_BEGIN
                             index_to_char__csolve_heapify___main__SSA__blk_0_1))
                  (> index_to_char__csolve_heapify___main__SSA__blk_0_1 0)
                  (not (= __cil_tmp6_main 0))
                  true)))
    (=> a!1 false))))
(assert (forall ((VV Int)
         (char_to_index__csolve_heapify___main__SSA__blk_0_1 Int)
         (EREAD Int)
         (index_to_char__csolve_heapify___main__SSA__blk_0_1 Int)
         (__cil_tmp6_main Int)
         (__cil_tmp8_main Int)
         (__cil_tmp7_main Int)
         (char_to_index__csolve_heapify___main Int)
         (i_main Int)
         (i_main__SSA__blk_1_1 Int)
         (i_main__SSA__phi_4 Int)
         (index_to_char__csolve_heapify___main Int)
         (EWRITE Int)
         (__cil_tmp9_main Int)
         (BLOCK_BEGIN (Array Int Int))
         (BLOCK_END (Array Int Int))
         (UNCHECKED (Array Int Int)))
  (let ((a!1 (or (= (select UNCHECKED VV) 1)
                 (and (<= (select BLOCK_BEGIN VV) VV)
                      (< VV (select BLOCK_END VV))
                      true)
                 false)))
  (let ((a!2 (and (not a!1)
                  (k_16 EREAD
                        EWRITE
                        i_main__SSA__phi_4
                        char_to_index__csolve_heapify___main
                        char_to_index__csolve_heapify___main__SSA__blk_0_1
                        i_main
                        i_main__SSA__blk_1_1
                        i_main__SSA__phi_4
                        index_to_char__csolve_heapify___main
                        index_to_char__csolve_heapify___main__SSA__blk_0_1
                        BLOCK_BEGIN
                        BLOCK_END
                        UNCHECKED)
                  (= __cil_tmp6_main (ite (< i_main__SSA__phi_4 256) 1 0))
                  (= (select BLOCK_END __cil_tmp7_main)
                     (select BLOCK_END
                             char_to_index__csolve_heapify___main__SSA__blk_0_1))
                  (= (select BLOCK_BEGIN __cil_tmp7_main)
                     (select BLOCK_BEGIN
                             char_to_index__csolve_heapify___main__SSA__blk_0_1))
                  (= (select UNCHECKED __cil_tmp7_main)
                     (select UNCHECKED
                             char_to_index__csolve_heapify___main__SSA__blk_0_1))
                  (= __cil_tmp7_main
                     (+ char_to_index__csolve_heapify___main__SSA__blk_0_1
                        (* 4 i_main__SSA__phi_4)))
                  (<= char_to_index__csolve_heapify___main__SSA__blk_0_1
                      __cil_tmp7_main)
                  (= __cil_tmp8_main (+ i_main__SSA__phi_4 1))
                  (= (select BLOCK_END __cil_tmp9_main)
                     (select BLOCK_END
                             index_to_char__csolve_heapify___main__SSA__blk_0_1))
                  (= (select BLOCK_BEGIN __cil_tmp9_main)
                     (select BLOCK_BEGIN
                             index_to_char__csolve_heapify___main__SSA__blk_0_1))
                  (= (select UNCHECKED __cil_tmp9_main)
                     (select UNCHECKED
                             index_to_char__csolve_heapify___main__SSA__blk_0_1))
                  (= __cil_tmp9_main
                     (+ index_to_char__csolve_heapify___main__SSA__blk_0_1
                        (* 4 __cil_tmp8_main)))
                  (<= index_to_char__csolve_heapify___main__SSA__blk_0_1
                      __cil_tmp9_main)
                  (= (select BLOCK_END
                             char_to_index__csolve_heapify___main__SSA__blk_0_1)
                     (+ char_to_index__csolve_heapify___main__SSA__blk_0_1 1024))
                  (= char_to_index__csolve_heapify___main__SSA__blk_0_1
                     (select BLOCK_BEGIN
                             char_to_index__csolve_heapify___main__SSA__blk_0_1))
                  (> char_to_index__csolve_heapify___main__SSA__blk_0_1 0)
                  (= i_main__SSA__blk_1_1 0)
                  (= (select BLOCK_END
                             index_to_char__csolve_heapify___main__SSA__blk_0_1)
                     (+ index_to_char__csolve_heapify___main__SSA__blk_0_1 1028))
                  (= index_to_char__csolve_heapify___main__SSA__blk_0_1
                     (select BLOCK_BEGIN
                             index_to_char__csolve_heapify___main__SSA__blk_0_1))
                  (> index_to_char__csolve_heapify___main__SSA__blk_0_1 0)
                  (not (= __cil_tmp6_main 0))
                  (< VV (+ __cil_tmp9_main 4))
                  (<= __cil_tmp9_main VV)
                  (= (select UNCHECKED VV) (select UNCHECKED __cil_tmp9_main))
                  (= (select BLOCK_END VV) (select BLOCK_END __cil_tmp9_main))
                  (= (select BLOCK_BEGIN VV)
                     (select BLOCK_BEGIN __cil_tmp9_main))
                  true)))
    (=> a!2 false)))))
(assert (forall ((VV Int)
         (BLOCK_BEGIN (Array Int Int))
         (BLOCK_END (Array Int Int))
         (UNCHECKED (Array Int Int)))
  (=> (and (not (>= VV 0)) (= VV 1024) true) false)))
(assert (forall ((char_to_index__csolve_heapify___main__SSA__blk_0_1 Int)
         (VV Int)
         (BLOCK_BEGIN (Array Int Int))
         (BLOCK_END (Array Int Int))
         (UNCHECKED (Array Int Int)))
  (=> (and (not (>= VV 0))
           (= (select BLOCK_END
                      char_to_index__csolve_heapify___main__SSA__blk_0_1)
              (+ char_to_index__csolve_heapify___main__SSA__blk_0_1 1024))
           (= char_to_index__csolve_heapify___main__SSA__blk_0_1
              (select BLOCK_BEGIN
                      char_to_index__csolve_heapify___main__SSA__blk_0_1))
           (> char_to_index__csolve_heapify___main__SSA__blk_0_1 0)
           (= VV 1028)
           true)
      false)))

(check-sat)
